33D32945 STP File, STP Format Version 1.0

SECTION Comments
Name "cube_n10_d3_s8"
Problem "Euclidean Steiner Tree Problem"
Remark "Generated with STPGenerator. 3 dimensions."
END

SECTION Graph
Nodes 10
END

SECTION Coordinates
DDD 0 0.3527607286 0.7895895954 0.9058258696
DDD 1 0.0438874350 0.9542649202 0.2482710840
DDD 2 0.8679820145 0.8387081427 0.9220907362
DDD 3 0.6533997663 0.5500675400 0.2691321919
DDD 4 0.6820132009 0.3835517202 0.9017543196
DDD 5 0.6433020787 0.9163497486 0.5770127282
DDD 6 0.0059619849 0.7512683970 0.5345170878
DDD 7 0.8868077020 0.5707898632 0.9158954317
DDD 8 0.2810107266 0.2728543464 0.6146288172
DDD 9 0.9977393495 0.1668278385 0.9347036872
END
